DIMACS2
20 166 181 11 88 308 290 114 263 59 108 161 61 53 51 213 143 256 192 12 171
p edge 320 650
e 0 244 1.0
e 1 184 1.0
e 2 308 6.0
e 2 0 2.0
e 3 109 2.0
e 4 51 38.0
e 4 197 1.0
e 4 277 5.0
e 4 96 8.0
e 4 46 12.0
e 5 185 1.0
e 6 80 2.0
e 7 247 2.0
e 7 153 9.0
e 7 29 3.0
e 7 280 7.0
e 8 147 2.0
e 9 35 1.0
e 9 28 11.0
e 10 302 1.0
e 11 10 36.0
e 11 210 23.0
e 11 116 49.0
e 11 50 1.0
e 11 140 31.0
e 11 284 47.0
e 11 202 23.0
e 11 261 46.0
e 11 249 49.0
e 11 304 25.0
e 11 31 30.0
e 11 306 40.0
e 11 179 31.0
e 11 212 21.0
e 11 166 34.0
e 12 302 9.0
e 12 8 25.0
e 12 163 39.0
e 12 309 12.0
e 12 141 46.0
e 12 203 19.0
e 12 142 8.0
e 12 28 17.0
e 12 204 37.0
e 12 103 27.0
e 12 197 24.0
e 12 50 28.0
e 12 271 1.0
e 12 48 19.0
e 12 298 15.0
e 12 301 1.0
e 13 200 1.0
e 14 287 2.0
e 14 27 1.0
e 15 211 1.0
e 15 231 1.0
e 16 11 27.0
e 17 239 4.0
e 17 89 1.0
e 18 280 1.0
e 19 137 7.0
e 20 243 2.0
e 20 55 1.0
e 21 68 6.0
e 21 79 4.0
e 22 2 1.0
e 23 94 8.0
e 23 63 4.0
e 23 292 3.0
e 23 81 5.0
e 23 294 12.0
e 24 177 1.0
e 25 217 1.0
e 26 317 3.0
e 26 28 7.0
e 27 145 1.0
e 28 171 46.0
e 28 17 8.0
e 29 104 5.0
e 30 5 1.0
e 31 316 1.0
e 32 81 1.0
e 33 81 1.0
e 34 166 35.0
e 34 78 1.0
e 35 103 1.0
e 36 18 1.0
e 37 178 1.0
e 38 193 1.0
e 39 174 2.0
e 40 36 1.0
e 41 256 39.0
e 42 41 2.0
e 42 280 1.0
e 43 144 1.0
e 44 118 1.0
e 45 83 2.0
e 45 208 1.0
e 46 38 1.0
e 47 270 1.0
e 48 117 1.0
e 49 79 1.0
e 50 275 4.0
e 51 91 28.0
e 51 154 42.0
e 51 174 25.0
e 51 85 47.0
e 51 309 46.0
e 51 203 15.0
e 51 215 29.0
e 51 258 33.0
e 51 122 15.0
e 51 65 34.0
e 51 254 36.0
e 51 137 39.0
e 51 236 49.0
e 51 143 26.0
e 51 256 10.0
e 51 131 22.0
e 52 90 1.0
e 52 239 2.0
e 53 167 41.0
e 53 20 24.0
e 53 0 27.0
e 53 296 36.0
e 53 88 45.0
e 53 277 22.0
e 53 4 10.0
e 53 157 37.0
e 53 83 7.0
e 53 177 19.0
e 53 237 43.0
e 53 22 27.0
e 53 84 31.0
e 53 85 38.0
e 53 220 26.0
e 54 291 5.0
e 54 318 1.0
e 55 250 1.0
e 56 90 1.0
e 57 114 6.0
e 58 192 6.0
e 58 73 10.0
e 58 35 9.0
e 58 267 4.0
e 58 204 3.0
e 59 94 33.0
e 59 40 1.0
e 59 173 45.0
e 59 39 44.0
e 59 26 23.0
e 59 28 41.0
e 59 174 10.0
e 59 24 49.0
e 59 87 35.0
e 59 103 29.0
e 59 305 37.0
e 59 8 16.0
e 59 226 44.0
e 59 315 40.0
e 59 14 49.0
e 59 180 35.0
e 60 102 1.0
e 61 7 5.0
e 61 251 14.0
e 61 285 33.0
e 61 290 48.0
e 61 312 29.0
e 61 184 15.0
e 61 171 25.0
e 61 135 5.0
e 61 244 48.0
e 61 9 19.0
e 61 118 14.0
e 61 93 34.0
e 61 19 49.0
e 61 94 14.0
e 61 197 49.0
e 61 228 37.0
e 62 251 1.0
e 63 100 1.0
e 64 146 2.0
e 65 176 2.0
e 66 199 1.0
e 67 122 3.0
e 68 161 39.0
e 68 199 2.0
e 68 76 6.0
e 69 212 3.0
e 70 144 1.0
e 71 54 1.0
e 72 127 2.0
e 73 128 1.0
e 74 50 5.0
e 75 132 2.0
e 76 78 1.0
e 77 101 1.0
e 78 248 1.0
e 79 121 1.0
e 80 62 2.0
e 81 40 1.0
e 82 47 1.0
e 83 227 1.0
e 84 247 1.0
e 85 156 1.0
e 86 199 1.0
e 87 136 2.0
e 88 73 12.0
e 88 254 43.0
e 88 72 14.0
e 88 114 13.0
e 88 55 28.0
e 88 4 10.0
e 88 244 23.0
e 88 311 20.0
e 88 24 44.0
e 88 302 45.0
e 88 80 10.0
e 88 299 46.0
e 88 318 26.0
e 88 115 49.0
e 88 148 45.0
e 88 289 22.0
e 89 196 1.0
e 90 27 1.0
e 91 214 1.0
e 92 270 1.0
e 93 281 1.0
e 94 285 1.0
e 95 49 1.0
e 96 13 1.0
e 97 145 2.0
e 98 93 2.0
e 98 159 2.0
e 99 53 1.0
e 99 80 1.0
e 100 89 1.0
e 101 154 3.0
e 102 268 1.0
e 103 110 1.0
e 104 314 2.0
e 105 53 11.0
e 105 50 1.0
e 106 166 49.0
e 107 8 3.0
e 108 282 38.0
e 108 238 5.0
e 108 259 11.0
e 108 140 35.0
e 108 209 22.0
e 108 261 44.0
e 108 49 13.0
e 108 181 14.0
e 108 38 22.0
e 108 13 35.0
e 108 46 11.0
e 108 235 30.0
e 108 52 45.0
e 108 53 35.0
e 108 101 9.0
e 108 201 23.0
e 108 161 22.0
e 109 301 1.0
e 110 145 1.0
e 111 288 1.0
e 112 184 1.0
e 112 138 1.0
e 113 175 2.0
e 114 314 16.0
e 114 4 2.0
e 114 254 33.0
e 114 134 10.0
e 114 175 32.0
e 114 122 13.0
e 114 176 38.0
e 114 70 44.0
e 114 43 31.0
e 114 200 48.0
e 114 71 37.0
e 114 87 18.0
e 114 201 17.0
e 114 196 4.0
e 114 133 20.0
e 115 16 1.0
e 116 44 2.0
e 117 304 1.0
e 118 190 2.0
e 119 68 1.0
e 119 175 2.0
e 120 75 1.0
e 121 5 1.0
e 122 126 1.0
e 123 281 1.0
e 124 312 1.0
e 125 87 1.0
e 126 192 42.0
e 127 162 2.0
e 128 306 2.0
e 129 249 1.0
e 130 115 1.0
e 130 278 1.0
e 131 89 1.0
e 132 299 1.0
e 133 223 1.0
e 134 256 19.0
e 135 11 13.0
e 136 265 2.0
e 137 263 28.0
e 137 253 10.0
e 138 61 32.0
e 139 149 2.0
e 140 135 1.0
e 141 169 1.0
e 142 295 1.0
e 143 0 36.0
e 143 38 33.0
e 143 202 41.0
e 143 230 34.0
e 143 95 15.0
e 143 198 39.0
e 143 72 36.0
e 143 60 18.0
e 143 108 29.0
e 143 46 14.0
e 143 74 48.0
e 143 164 45.0
e 143 131 24.0
e 143 68 6.0
e 143 274 18.0
e 143 281 38.0
e 144 102 1.0
e 145 250 3.0
e 146 74 1.0
e 147 277 1.0
e 148 91 1.0
e 149 110 1.0
e 150 243 1.0
e 151 270 1.0
e 152 87 1.0
e 153 242 1.0
e 154 290 13.0
e 154 296 3.0
e 154 66 1.0
e 155 283 2.0
e 156 173 1.0
e 157 238 10.0
e 157 140 12.0
e 158 257 1.0
e 159 189 1.0
e 160 122 1.0
e 161 223 30.0
e 161 37 26.0
e 161 168 6.0
e 161 222 28.0
e 161 54 41.0
e 161 198 21.0
e 161 263 2.0
e 161 48 30.0
e 161 286 14.0
e 161 300 6.0
e 161 41 16.0
e 161 111 12.0
e 161 69 22.0
e 162 37 2.0
e 163 27 1.0
e 164 217 1.0
e 165 318 2.0
e 165 305 1.0
e 166 311 31.0
e 166 56 14.0
e 166 127 31.0
e 166 285 36.0
e 166 28 26.0
e 166 51 23.0
e 166 41 5.0
e 166 176 6.0
e 166 177 44.0
e 166 201 37.0
e 166 32 20.0
e 166 204 3.0
e 166 36 39.0
e 166 82 13.0
e 167 117 2.0
e 168 142 1.0
e 169 236 2.0
e 170 276 1.0
e 171 239 15.0
e 171 255 16.0
e 171 34 33.0
e 171 257 32.0
e 171 286 5.0
e 171 52 4.0
e 171 155 19.0
e 171 306 48.0
e 171 182 24.0
e 171 224 25.0
e 171 8 32.0
e 171 256 37.0
e 171 58 5.0
e 171 75 37.0
e 171 307 23.0
e 172 92 1.0
e 173 113 1.0
e 174 187 1.0
e 175 256 35.0
e 176 113 2.0
e 177 241 1.0
e 178 279 1.0
e 179 279 1.0
e 180 149 1.0
e 181 157 47.0
e 181 240 48.0
e 181 234 44.0
e 181 216 46.0
e 181 183 18.0
e 181 237 44.0
e 181 63 48.0
e 181 182 47.0
e 181 11 28.0
e 181 94 39.0
e 181 198 16.0
e 181 307 1.0
e 181 134 21.0
e 181 293 23.0
e 181 173 40.0
e 181 252 21.0
e 182 297 1.0
e 183 126 1.0
e 184 10 2.0
e 185 67 2.0
e 186 212 1.0
e 187 263 5.0
e 188 38 1.0
e 189 150 1.0
e 190 272 2.0
e 191 118 1.0
e 192 265 26.0
e 192 96 44.0
e 192 101 10.0
e 192 300 22.0
e 192 36 37.0
e 192 214 11.0
e 192 104 31.0
e 192 53 23.0
e 192 107 42.0
e 192 200 37.0
e 192 157 33.0
e 192 264 37.0
e 192 114 9.0
e 192 207 6.0
e 193 74 1.0
e 194 161 5.0
e 194 190 1.0
e 195 59 43.0
e 195 298 1.0
e 196 120 1.0
e 197 6 1.0
e 198 116 1.0
e 199 174 1.0
e 200 223 1.0
e 201 21 5.0
e 202 164 1.0
e 203 155 1.0
e 204 47 2.0
e 205 308 43.0
e 205 82 2.0
e 205 283 1.0
e 206 102 1.0
e 207 40 1.0
e 208 77 1.0
e 209 137 3.0
e 210 29 2.0
e 211 310 2.0
e 212 124 2.0
e 213 50 5.0
e 213 255 48.0
e 213 282 33.0
e 213 193 23.0
e 213 290 39.0
e 213 117 38.0
e 213 59 6.0
e 213 317 44.0
e 213 95 4.0
e 213 19 27.0
e 213 295 1.0
e 213 148 47.0
e 213 232 20.0
e 213 51 17.0
e 213 96 32.0
e 213 301 5.0
e 213 108 4.0
e 214 252 2.0
e 215 57 2.0
e 215 19 2.0
e 216 207 1.0
e 217 218 2.0
e 218 290 20.0
e 219 218 1.0
e 219 75 3.0
e 220 148 1.0
e 221 106 1.0
e 222 127 2.0
e 223 83 1.0
e 224 47 1.0
e 225 206 1.0
e 226 191 4.0
e 227 86 2.0
e 228 13 1.0
e 229 313 1.0
e 230 239 1.0
e 231 202 2.0
e 232 157 1.0
e 233 84 1.0
e 234 133 1.0
e 235 3 2.0
e 236 120 2.0
e 237 131 1.0
e 238 305 1.0
e 239 251 5.0
e 240 16 1.0
e 241 202 1.0
e 242 46 1.0
e 243 12 42.0
e 244 311 1.0
e 245 268 1.0
e 246 245 1.0
e 247 196 1.0
e 248 191 1.0
e 249 133 1.0
e 250 313 1.0
e 251 193 1.0
e 252 223 1.0
e 253 222 1.0
e 254 169 1.0
e 255 10 1.0
e 256 2 8.0
e 256 185 42.0
e 256 100 34.0
e 256 285 28.0
e 256 234 49.0
e 256 3 16.0
e 256 186 16.0
e 256 60 34.0
e 256 273 30.0
e 256 276 45.0
e 256 124 7.0
e 256 312 49.0
e 257 290 49.0
e 258 314 4.0
e 258 292 2.0
e 259 175 2.0
e 260 90 1.0
e 261 253 1.0
e 262 233 1.0
e 263 69 6.0
e 263 233 40.0
e 263 142 7.0
e 263 49 18.0
e 263 315 31.0
e 263 7 11.0
e 263 125 11.0
e 263 76 2.0
e 263 154 21.0
e 263 296 11.0
e 263 282 46.0
e 263 134 41.0
e 263 178 37.0
e 263 260 32.0
e 264 221 1.0
e 265 129 1.0
e 266 62 1.0
e 267 27 2.0
e 268 172 1.0
e 269 95 1.0
e 270 125 1.0
e 271 211 1.0
e 272 85 1.0
e 273 19 1.0
e 274 269 1.0
e 275 151 1.0
e 276 141 1.0
e 277 79 1.0
e 278 266 1.0
e 279 278 1.0
e 280 267 1.0
e 281 86 2.0
e 282 273 1.0
e 283 47 3.0
e 284 39 2.0
e 285 76 1.0
e 286 113 1.0
e 287 41 2.0
e 288 314 1.0
e 289 253 1.0
e 290 193 29.0
e 290 307 36.0
e 290 262 16.0
e 290 73 29.0
e 290 214 6.0
e 290 205 38.0
e 290 208 5.0
e 290 271 29.0
e 290 119 12.0
e 290 53 43.0
e 290 14 42.0
e 290 286 18.0
e 291 195 2.0
e 292 184 1.0
e 293 221 1.0
e 294 284 2.0
e 295 275 1.0
e 296 269 1.0
e 297 161 8.0
e 298 196 1.0
e 299 97 1.0
e 300 275 1.0
e 301 39 1.0
e 302 204 1.0
e 303 158 1.0
e 304 129 1.0
e 305 160 1.0
e 306 142 1.0
e 307 198 1.0
e 308 226 32.0
e 308 159 6.0
e 308 188 37.0
e 308 298 35.0
e 308 211 40.0
e 308 206 12.0
e 308 134 31.0
e 308 293 31.0
e 308 208 17.0
e 308 241 2.0
e 308 246 8.0
e 308 284 39.0
e 308 124 31.0
e 308 255 21.0
e 308 88 24.0
e 309 186 1.0
e 310 279 2.0
e 311 35 1.0
e 312 141 2.0
e 313 126 2.0
e 314 236 1.0
e 315 241 1.0
e 316 32 1.0
e 317 110 2.0
e 318 269 1.0
e 319 192 41.0
e 319 228 1.0
